SAT
-172 -139 10 65 22 168 -108 -74 42 -174 125 140 -120 -8 -35 -85 -30 -79 153 -28 61 151 13 54 126 112 -158 -132 37 46 -128 71 78 19 -36 34 -48 144 -159 163 -166 134 127 -133 -86 -43 7 25 105 152 175 -51 145 -122 142 18 -107 -49 -97 173 143 73 6 138 -113 -68 -91 114 -124 56 116 117 67 -150 3 20 59 -155 21 -29 82 162 -14 100 39 81 -87 -53 161 9 -5 69 -111 -33 -38 -110 -92 50 -66 -165 119 -45 147 84 40 167 141 -31 32 62 -123 160 -96 -103 95 64 169 146 102 -93 -109 170 -55 -104 44 129 -70 -2 106 57 -15 41 -156 -149 -60 23 171 -137 99 72 -47 -157 90 131 -136 -98 16 17 121 164 118 -58 11 -115 -24 -80 154 76 12 88 -75 -135 4 -77 148 94 27 89 130 26 -83 63 1 101 -52 
